letting n =  10
letting blocks =  [[1, 5], [1, 6], [1, 10], [2, 1], [2, 7], [3, 1], [3, 5], [4, 4], [4, 7], [4, 8], [4, 9], [5, 5], [6, 1], [6, 2], [6, 3], [6, 4], [6, 9], [7, 5], [7, 6], [7, 7], [8, 7], [9, 1], [9, 2], [9, 5], [10, 1], [10, 2], [10, 7], [10, 10]]
